File : Instances/p69
Use 143 s

26437

0 1 1 0 1 0 1 0 1 0 1 1 0 0 0 0 0 0 0 1 0 1 0 0 0 1 0 1 0 0 
27 19 21 27 2 6 21 27 27 27 4 19 8 1 19 11 1 10 27 27 27 21 1 21 10 27 27 19 4 2 19 19 4 21 27 6 8 8 21 21 25 8 6 4 8 19 8 21 19 19 27 21 21 21 8 6 11 8 27 25 4 2 25 8 8 11 2 19 19 25 25 6 6 8 10 1 8 10 8 21 10 2 8 25 4 10 6 2 27 25 11 6 25 25 2 1 11 6 2 11 19 21 25 25 4 2 4 27 27 1 19 4 27 6 11 8 11 25 10 8 8 11 19 19 4 21 2 11 19 2 11 21 11 8 1 8 1 8 11 10 11 27 11 11 25 2 21 21 27 25 21 10 10 27 8 11 2 21 8 1 1 27 10 2 10 27 1 4 1 21 1 8 19 10 4 2 27 10 4 10 2 21 21 19 11 8 11 10 27 21 2 21 6 4 25 6 25 21 10 19 
